This is Ipopt version 3.10.0, running with linear solver ma27.

Number of nonzeros in equality constraint Jacobian...:        0
Number of nonzeros in inequality constraint Jacobian.:       48
Number of nonzeros in Lagrangian Hessian.............:        0

Total number of variables............................:        6
                     variables with only lower bounds:        0
                variables with lower and upper bounds:        6
                     variables with only upper bounds:        0
Total number of equality constraints.................:        0
Total number of inequality constraints...............:        8
        inequality constraints with only lower bounds:        0
   inequality constraints with lower and upper bounds:        0
        inequality constraints with only upper bounds:        8

iter    objective    inf_pr   inf_du lg(mu)  ||d||  lg(rg) alpha_du alpha_pr  ls
   0  7.6568542e+00 3.23e+00 1.09e+00   0.0 0.00e+00    -  0.00e+00 0.00e+00   0
   1  1.0426462e+01 1.44e+00 6.01e+00  -0.6 2.05e+00    -  2.71e-01 9.85e-01h  1
   2  1.0331653e+01 1.18e+00 2.56e+00  -0.5 1.14e+00    -  8.02e-01 2.40e-01h  1
   3  1.1387754e+01 7.83e-01 3.27e+00  -0.8 8.79e-01    -  6.19e-01 4.28e-01h  1
   4  1.2993881e+01 6.99e-01 4.13e+00  -0.9 1.13e+00    -  9.59e-01 4.85e-01h  1
   5  1.5028218e+01 4.23e-01 1.45e+01  -1.1 1.59e+00    -  1.00e+00 5.03e-01h  1
   6  1.6341131e+01 3.35e-01 2.88e+01  -0.8 1.95e+00    -  9.79e-01 2.31e-01h  1
   7  2.1815590e+01 8.38e-02 3.60e+00  -1.2 2.18e+00    -  1.00e+00 1.00e+00h  1
   8  2.3661508e+01 9.03e-03 1.11e+01  -0.1 2.89e+00    -  7.36e-01 3.55e-01f  1
   9  2.3775574e+01 5.79e-03 1.21e+00  -1.0 1.46e-01    -  1.00e+00 1.00e+00h  1
iter    objective    inf_pr   inf_du lg(mu)  ||d||  lg(rg) alpha_du alpha_pr  ls
  10  2.3519357e+01 2.15e-02 1.91e+00  -2.1 4.01e-01    -  9.97e-01 9.79e-01f  1
  11  2.4104233e+01 9.27e-03 2.42e+00  -2.5 2.32e-01    -  1.00e+00 1.00e+00h  1
  12  2.4379894e+01 1.41e-03 2.24e+00  -2.6 8.56e-02    -  1.00e+00 1.00e+00h  1
  13  2.4389902e+01 1.46e-03 7.24e-01  -3.1 1.50e-01    -  1.00e+00 1.00e+00h  1
  14  2.4431444e+01 2.73e-04 2.13e-02  -4.7 2.86e-02    -  1.00e+00 9.82e-01h  1
  15  2.4439878e+01 3.97e-05 4.26e-03  -6.2 2.60e-03    -  1.00e+00 1.00e+00h  1
  16  2.4441123e+01 5.10e-07 4.84e-04  -8.3 5.27e-04    -  1.00e+00 1.00e+00h  1

Number of Iterations....: 16

                                   (scaled)                 (unscaled)
Objective...............:   2.4441123402431700e+01    2.4441123402431700e+01
Dual infeasibility......:   4.8370070035197443e-04    4.8370070035197443e-04
Constraint violation....:   5.0962052594750617e-07    5.0962052594750617e-07
Complementarity.........:   7.0194858604092715e-09    7.0194858604092715e-09
Overall NLP error.......:   4.8370070035197443e-04    4.8370070035197443e-04


Number of objective function evaluations             = 17
Number of objective gradient evaluations             = 17
Number of equality constraint evaluations            = 0
Number of inequality constraint evaluations          = 17
Number of equality constraint Jacobian evaluations   = 0
Number of inequality constraint Jacobian evaluations = 17
Number of Lagrangian Hessian evaluations             = 0
Total CPU secs in IPOPT (w/o function evaluations)   =      0.017
Total CPU secs in NLP function evaluations           =      0.002

EXIT: Stopping optimization at current point as requested by user.
